p cnf 107 343
c t mc
-3 1 0
-3 2 0
-1 -2 3 0
2 4 -5 0
-2 -4 -5 0
2 -4 5 0
-2 4 5 0
-9 -7 0
-9 -8 0
7 8 9 0
-6 9 -10 0
6 -9 -10 0
-6 -9 10 0
6 9 10 0
13 11 0
13 -12 0
-11 12 -13 0
15 -13 0
15 -14 0
13 14 -15 0
16 -10 0
16 -15 0
10 15 -16 0
17 -6 0
17 -12 0
6 12 -17 0
-18 -16 0
-18 -17 0
16 17 18 0
19 5 0
19 -18 0
-5 18 -19 0
3 -19 -20 0
-3 19 -20 0
3 19 20 0
-3 -19 20 0
-6 -1 -21 0
6 1 -21 0
-6 1 21 0
6 -1 21 0
22 -21 0
22 7 0
21 -7 -22 0
23 8 0
23 8 0
-8 -23 0
4 -23 -24 0
-4 23 -24 0
4 23 24 0
-4 -23 24 0
-24 25 -26 0
24 -25 -26 0
-24 -25 26 0
24 25 26 0
-22 26 -27 0
22 -26 -27 0
-22 -26 27 0
22 26 27 0
-28 -20 0
-28 27 0
20 -27 28 0
-30 29 0
-30 -10 0
-29 10 30 0
13 11 -31 0
-13 -11 -31 0
13 -11 31 0
-13 11 31 0
-30 31 -32 0
30 -31 -32 0
-30 -31 32 0
30 31 32 0
-33 28 0
-33 -32 0
-28 32 33 0
34 35 -36 0
-34 -35 -36 0
34 -35 36 0
-34 35 36 0
38 -37 0
38 2 0
37 -2 -38 0
39 -36 0
39 -38 0
36 38 -39 0
-8 -40 -41 0
8 40 -41 0
-8 40 41 0
8 -40 41 0
-42 14 0
-42 6 0
-14 -6 42 0
-43 42 0
-43 14 0
-42 -14 43 0
-44 -15 0
-44 -43 0
15 43 44 0
29 -44 -45 0
-29 44 -45 0
29 44 45 0
-29 -44 45 0
-46 -41 0
-46 45 0
41 -45 46 0
-47 39 0
-47 -46 0
-39 46 47 0
-48 -30 0
-48 9 0
30 -9 48 0
48 12 -49 0
-48 -12 -49 0
48 -12 49 0
-48 12 49 0
50 47 0
50 -49 0
-47 49 -50 0
51 13 0
51 6 0
-13 -6 -51 0
-13 51 -52 0
13 -51 -52 0
-13 -51 52 0
13 51 52 0
-53 52 0
-53 18 0
-52 -18 53 0
-3 -53 -54 0
3 53 -54 0
-3 53 54 0
3 -53 54 0
-56 25 0
-56 55 0
-25 -55 56 0
-1 -57 -58 0
1 57 -58 0
-1 57 58 0
1 -57 58 0
59 -42 0
59 -36 0
42 36 -59 0
60 -58 0
60 59 0
58 -59 -60 0
-56 60 -61 0
56 -60 -61 0
-56 -60 61 0
56 60 61 0
-62 -41 0
-62 -7 0
41 7 62 0
63 -61 0
63 -62 0
61 62 -63 0
54 -63 -64 0
-54 63 -64 0
54 63 64 0
-54 -63 64 0
65 30 0
65 -57 0
-30 57 -65 0
57 -41 -66 0
-57 41 -66 0
57 41 66 0
-57 -41 66 0
67 -66 0
67 6 0
66 -6 -67 0
-69 -68 0
-69 -18 0
68 18 69 0
-70 67 0
-70 -69 0
-67 69 70 0
-71 65 0
-71 -70 0
-65 70 71 0
-72 -30 0
-72 21 0
30 -21 72 0
-73 16 0
-73 72 0
-16 -72 73 0
-73 -29 -74 0
73 29 -74 0
-73 29 74 0
73 -29 74 0
57 -51 -75 0
-57 51 -75 0
57 51 75 0
-57 -51 75 0
6 -76 -77 0
-6 76 -77 0
6 76 77 0
-6 -76 77 0
-75 -77 -78 0
75 77 -78 0
-75 77 78 0
75 -77 78 0
-79 -5 -80 0
79 5 -80 0
-79 5 80 0
79 -5 80 0
-81 7 0
-81 12 0
-7 -12 81 0
-82 80 0
-82 81 0
-80 -81 82 0
-83 -78 0
-83 82 0
78 -82 83 0
74 83 -84 0
-74 -83 -84 0
74 -83 84 0
-74 83 84 0
-85 16 0
-85 51 0
-16 -51 85 0
-86 84 0
-86 85 0
-84 -85 86 0
-87 -35 0
-87 -40 0
35 40 87 0
-88 -87 0
-88 68 0
87 -68 88 0
-89 34 0
-89 41 0
-34 -41 89 0
-89 90 0
89 90 0
-91 88 0
-91 90 0
-88 -90 91 0
-92 -86 0
-92 91 0
86 -91 92 0
71 92 -93 0
-71 -92 -93 0
71 -92 93 0
-71 92 93 0
64 93 -94 0
-64 -93 -94 0
64 -93 94 0
-64 93 94 0
-95 -80 0
-95 87 0
80 -87 95 0
96 16 0
96 -19 0
-16 19 -96 0
13 -14 -97 0
-13 14 -97 0
13 14 97 0
-13 -14 97 0
98 13 0
98 -97 0
-13 97 -98 0
-99 -96 0
-99 -98 0
96 98 99 0
100 95 0
100 99 0
-95 -99 -100 0
-101 -7 0
-101 37 0
7 -37 101 0
97 101 -102 0
-97 -101 -102 0
97 -101 102 0
-97 101 102 0
103 102 0
103 81 0
-102 -81 -103 0
-100 -103 -104 0
100 103 -104 0
-100 103 104 0
100 -103 104 0
-94 104 -105 0
94 -104 -105 0
-94 -104 105 0
94 104 105 0
-106 -50 0
-106 -105 0
50 105 106 0
33 106 -107 0
-33 -106 -107 0
33 -106 107 0
-33 106 107 0
86 -87 -6 0
-67 72 0
-69 74 -12 59 50 61 -5 0
-47 92 -43 19 26 -102 -32 -14 0
6 71 0
-19 -20 72 68 1 -80 -103 -81 -104 0
-106 24 -102 103 -66 -58 0
-83 -68 0
104 -2 -25 -31 21 -44 -95 71 -19 -66 0
-34 -59 0
41 -93 0
-100 -36 25 -77 -95 0
102 75 23 0
81 106 -5 42 61 -37 0
-41 -9 0
29 -87 19 51 -57 33 59 0
8 83 22 107 -93 3 -50 28 78 0
-96 35 63 -25 -70 29 -54 7 44 0
56 -15 -43 0
-55 -5 -88 0
-9 101 -97 80 65 0
77 76 -6 10 -105 -80 -89 -36 24 0
35 63 20 -23 83 2 -56 -90 0
49 -57 22 43 -50 0
-36 -79 -32 84 77 66 -104 0
-60 30 8 53 67 83 -68 57 0
-56 -34 -28 95 -40 -104 27 33 77 0
-55 52 6 75 -73 98 87 62 -5 0
61 -57 0
-11 -54 32 -72 -64 -18 57 -102 0
100 -86 99 0
-20 -86 0
36 15 46 0
54 72 -19 35 52 -78 7 28 22 0
-107 101 1 -38 71 -21 -49 -92 -29 0
92 -61 67 -17 9 107 0
59 83 -63 -74 -43 29 9 -55 -48 18 0
107 13 -31 -102 40 4 93 0
-8 -20 -36 75 -40 103 0
-93 -86 63 15 -101 -100 -48 -59 -56 -39 0
53 107 0
43 22 0
-97 -54 0
18 103 -76 -4 -29 -45 3 95 0
-14 97 -22 -23 20 31 48 74 -54 0
105 -73 0
77 8 -26 -90 0
66 96 9 37 0
4 37 27 95 -83 -13 -32 22 0
-14 -36 60 81 19 0
107 0
